rectOffsets = 
    [|0,0,3,3|0,0,3,3|0,0,3,4|0,0,4,3|0,0,3,5|0,0,5,3|0,0,3,6|0,0,6,3|0,0,3,7|0,0,7,3|0,0,3,8|0,0,8,3|0,0,3,9|0,0,9,3|0,0,3,10|0,0,10,3|0,0,3,11|0,0,11,3|0,0,3,13|0,0,13,3|0,0,3,14|0,0,14,3|0,0,3,17|0,0,17,3|0,0,3,18|0,0,18,3|0,0,3,19|0,0,19,3|0,0,3,25|0,0,25,3|0,0,4,5|0,0,5,4|0,0,4,7|0,0,7,4|0,0,4,13|0,0,13,4|0,0,6,3|0,0,3,6|];

shape = array1d(1..38, [{1}, {2}, {3}, {4}, {5}, {6}, {7}, {8}, {9}, {10},
    {11}, {12}, {13}, {14}, {15}, {16}, {17}, {18}, {19}, {20}, {21},
    {22}, {23}, {24}, {25}, {26}, {27}, {28}, {29}, {30}, {31}, {32},
    {33}, {34}, {35}, {36}, {37}, {38}]);

validshapes = array1d(1..19, [{1,2}, {3,4}, {5,6}, {7,8}, {9,10}, {11,12}, {13,14},
    {15,16}, {17,18}, {19,20}, {21,22}, {23,24}, {25,26}, {27,28},
    {29,30}, {31,32}, {33,34}, {35,36}, {37,38}]);

dx = array1d(1..19, [3, 3, 3, 3, 3, 3, 3, 3, 3, 3, 3, 3, 3, 3, 3, 4, 4, 4,
    6]);

dy = array1d(1..19, [3, 4, 5, 6, 7, 8, 9, 10, 11, 13, 14, 17, 18, 19, 25,
    5, 7, 13, 3]);

w = 25;

n = 19;

o = 38;

